cmake-build-cppclion/linear_programming/sddp_overdraft/iter_1.sol
# Solution for model (null)_copy
# Objective value = -1945
q_1 0
W0_1 0
W1_1 50
W2_1 0
theta_2 -2000
